coords = array2d(1..51, 1..2, [331, 199, 919, 724, 670, 808, 819, 520, 539,
    576, 264, 854, 138, 373, 796, 840, 941, 236, 506, 931, 748, 881,
    53, 46, 467, 177, 281, 439, 95, 911, 33, 173, 31, 12, 928, 500,
    583, 389, 551, 381, 295, 288, 38, 508, 881, 100, 237, 900, 225,
    962, 283, 662, 136, 107, 599, 313, 214, 420, 910, 86, 30, 326,
    377, 103, 507, 456, 232, 233, 978, 465, 737, 524, 901, 799, 167,
    495, 937, 953, 21, 968, 919, 829, 660, 701, 249, 430, 326, 234,
    817, 943, 466, 543, 710, 382, 309, 342, 108, 858, 795, 752, 922,
    363]);

n = 51;

